50
8944

807 257
949 487
959 499
148 655
658 101
843 353
497 776
841 143
27 676
188 296
209 745
440 65
532 158
761 18
774 237
67 444
428 903
671 312
200 250
386 160
680 202
238 320
496 378
291 17
618 792
754 719
181 873
348 4
919 857
140 188
869 815
860 28
414 42
536 281
271 409
1 146
354 543
491 715
169 717
529 20
717 912
587 905
659 408
95 603
138 270
916 141
351 307
679 284
885 778
25 664
